DIMACS2
40 207 255 284 67 72 313 68 2 49 237 120 21 59 253 208 62 145 192 245 38 112 226 52 137 194 32 280 261 153 282 124 150 3 181 156 258 56 290 187 217
p edge 320 1227
e 0 210 1.0
e 1 62 30.0
e 1 0 1.0
e 2 205 16.0
e 2 85 2.0
e 2 175 40.0
e 2 46 14.0
e 2 170 22.0
e 2 163 49.0
e 2 136 25.0
e 2 109 36.0
e 2 99 10.0
e 2 315 46.0
e 2 13 18.0
e 2 151 4.0
e 2 18 40.0
e 2 303 17.0
e 2 285 9.0
e 2 297 36.0
e 2 261 27.0
e 2 295 28.0
e 2 203 48.0
e 2 220 17.0
e 2 135 25.0
e 2 116 29.0
e 2 290 49.0
e 2 263 8.0
e 2 305 37.0
e 3 21 10.0
e 3 1 35.0
e 3 230 9.0
e 3 4 30.0
e 3 175 47.0
e 3 238 7.0
e 3 7 40.0
e 3 252 39.0
e 3 81 11.0
e 3 82 11.0
e 3 50 14.0
e 3 125 37.0
e 3 245 9.0
e 3 75 37.0
e 3 141 39.0
e 3 211 11.0
e 3 116 49.0
e 3 247 42.0
e 3 270 38.0
e 3 253 47.0
e 3 130 42.0
e 3 117 7.0
e 3 118 38.0
e 3 17 18.0
e 4 46 2.0
e 5 304 1.0
e 6 246 1.0
e 7 269 2.0
e 7 16 3.0
e 8 183 1.0
e 9 318 1.0
e 10 88 1.0
e 10 115 3.0
e 10 2 4.0
e 11 233 1.0
e 12 152 1.0
e 13 72 12.0
e 14 315 1.0
e 14 157 2.0
e 15 62 41.0
e 15 54 3.0
e 15 237 24.0
e 16 302 1.0
e 17 186 1.0
e 18 148 1.0
e 19 119 1.0
e 20 244 1.0
e 21 111 46.0
e 21 116 42.0
e 21 102 38.0
e 21 208 31.0
e 21 194 20.0
e 21 66 37.0
e 21 276 45.0
e 21 20 44.0
e 21 200 14.0
e 21 307 31.0
e 21 312 32.0
e 21 182 3.0
e 21 288 44.0
e 21 195 11.0
e 21 245 36.0
e 21 73 38.0
e 21 207 20.0
e 21 14 49.0
e 21 17 23.0
e 21 46 41.0
e 21 151 11.0
e 21 272 37.0
e 21 103 1.0
e 22 261 25.0
e 23 315 2.0
e 23 122 2.0
e 24 108 1.0
e 25 6 1.0
e 26 4 2.0
e 27 156 43.0
e 27 275 1.0
e 27 263 5.0
e 28 36 1.0
e 29 296 1.0
e 29 248 1.0
e 30 81 2.0
e 31 185 4.0
e 31 311 1.0
e 31 252 4.0
e 32 175 32.0
e 32 204 29.0
e 32 226 10.0
e 32 126 42.0
e 32 241 4.0
e 32 141 20.0
e 32 92 45.0
e 32 219 1.0
e 32 4 10.0
e 32 85 43.0
e 32 54 35.0
e 32 161 4.0
e 32 145 28.0
e 32 82 41.0
e 32 65 5.0
e 32 5 15.0
e 32 20 43.0
e 32 41 12.0
e 32 248 29.0
e 32 79 20.0
e 32 152 33.0
e 32 6 7.0
e 32 220 30.0
e 32 74 48.0
e 33 95 1.0
e 34 232 1.0
e 35 242 1.0
e 36 206 1.0
e 37 142 1.0
e 38 257 15.0
e 38 189 3.0
e 38 135 26.0
e 38 20 49.0
e 38 177 8.0
e 38 251 46.0
e 38 254 24.0
e 38 132 7.0
e 38 222 19.0
e 38 21 5.0
e 38 298 40.0
e 38 212 1.0
e 38 265 1.0
e 38 89 25.0
e 38 213 39.0
e 38 94 24.0
e 38 173 6.0
e 38 61 48.0
e 38 178 45.0
e 38 133 29.0
e 38 171 16.0
e 38 283 34.0
e 38 111 19.0
e 39 25 1.0
e 40 157 3.0
e 41 265 1.0
e 42 203 1.0
e 43 248 1.0
e 44 150 35.0
e 44 125 5.0
e 44 198 1.0
e 44 75 5.0
e 45 242 1.0
e 46 180 1.0
e 47 36 1.0
e 48 26 2.0
e 49 146 28.0
e 49 169 45.0
e 49 219 39.0
e 49 229 28.0
e 49 48 47.0
e 49 207 25.0
e 49 12 29.0
e 49 257 43.0
e 49 124 45.0
e 49 210 36.0
e 49 76 31.0
e 49 103 41.0
e 49 168 9.0
e 49 156 38.0
e 49 80 23.0
e 49 149 23.0
e 49 111 14.0
e 49 104 33.0
e 49 171 16.0
e 49 240 42.0
e 49 242 39.0
e 49 260 37.0
e 49 27 34.0
e 50 1 1.0
e 51 135 1.0
e 51 3 40.0
e 52 88 22.0
e 52 318 21.0
e 52 19 21.0
e 52 142 36.0
e 52 8 18.0
e 52 229 14.0
e 52 204 22.0
e 52 242 43.0
e 52 201 31.0
e 52 36 48.0
e 52 295 31.0
e 52 317 36.0
e 52 181 9.0
e 52 143 20.0
e 52 297 11.0
e 52 39 48.0
e 52 289 6.0
e 52 212 37.0
e 52 291 36.0
e 52 108 48.0
e 52 205 31.0
e 52 287 39.0
e 52 259 8.0
e 52 207 20.0
e 52 9 4.0
e 53 138 1.0
e 54 110 1.0
e 55 174 1.0
e 56 299 12.0
e 56 206 10.0
e 56 38 9.0
e 56 52 9.0
e 56 67 6.0
e 56 278 2.0
e 56 109 17.0
e 56 301 1.0
e 56 54 12.0
e 56 53 38.0
e 56 101 45.0
e 56 110 45.0
e 56 214 21.0
e 56 288 44.0
e 56 243 30.0
e 56 97 30.0
e 56 123 29.0
e 56 316 41.0
e 56 186 35.0
e 56 164 6.0
e 56 195 8.0
e 56 216 44.0
e 56 34 30.0
e 56 203 27.0
e 57 283 1.0
e 57 161 2.0
e 58 89 2.0
e 59 93 30.0
e 59 287 27.0
e 59 248 36.0
e 59 182 49.0
e 59 195 3.0
e 59 86 39.0
e 59 150 8.0
e 59 49 39.0
e 59 5 34.0
e 59 170 20.0
e 59 153 13.0
e 59 119 25.0
e 59 57 3.0
e 59 138 26.0
e 59 130 43.0
e 59 110 42.0
e 59 314 40.0
e 59 304 23.0
e 59 189 40.0
e 59 229 30.0
e 59 6 36.0
e 59 247 10.0
e 59 225 11.0
e 60 155 1.0
e 61 88 1.0
e 62 221 1.0
e 62 311 18.0
e 62 298 5.0
e 62 114 49.0
e 62 7 25.0
e 62 235 4.0
e 62 123 36.0
e 62 210 24.0
e 62 88 32.0
e 62 40 44.0
e 62 81 39.0
e 62 230 35.0
e 62 178 4.0
e 62 43 34.0
e 62 8 9.0
e 62 258 48.0
e 62 106 27.0
e 62 259 29.0
e 62 74 8.0
e 62 289 14.0
e 62 254 39.0
e 62 111 33.0
e 62 87 7.0
e 63 53 1.0
e 64 48 1.0
e 64 69 1.0
e 65 312 1.0
e 66 234 1.0
e 67 63 16.0
e 67 308 46.0
e 67 5 1.0
e 67 217 19.0
e 67 69 9.0
e 67 150 40.0
e 67 313 29.0
e 67 52 9.0
e 67 61 7.0
e 67 48 2.0
e 67 316 6.0
e 67 142 1.0
e 67 274 48.0
e 67 144 20.0
e 67 62 31.0
e 67 269 19.0
e 67 227 5.0
e 67 9 40.0
e 67 146 48.0
e 67 199 22.0
e 67 298 23.0
e 67 45 19.0
e 67 174 32.0
e 68 72 18.0
e 68 182 38.0
e 68 128 9.0
e 68 12 30.0
e 68 191 11.0
e 68 179 4.0
e 68 294 22.0
e 68 279 29.0
e 68 284 1.0
e 68 232 39.0
e 68 89 43.0
e 68 261 25.0
e 68 159 39.0
e 68 300 41.0
e 68 49 26.0
e 68 235 18.0
e 68 129 48.0
e 68 259 9.0
e 68 307 46.0
e 68 213 27.0
e 68 50 33.0
e 68 201 24.0
e 68 248 15.0
e 68 285 9.0
e 68 181 24.0
e 69 110 1.0
e 70 222 2.0
e 71 78 2.0
e 72 268 33.0
e 72 298 41.0
e 72 100 15.0
e 72 3 29.0
e 72 77 47.0
e 72 128 31.0
e 72 287 15.0
e 72 235 12.0
e 72 229 2.0
e 72 112 48.0
e 72 35 21.0
e 72 18 11.0
e 72 266 6.0
e 72 111 21.0
e 72 25 19.0
e 72 44 31.0
e 72 131 13.0
e 72 146 47.0
e 72 211 13.0
e 72 311 28.0
e 72 93 36.0
e 72 10 34.0
e 72 45 33.0
e 73 166 1.0
e 74 296 1.0
e 75 143 1.0
e 76 123 2.0
e 77 42 1.0
e 78 91 1.0
e 79 56 17.0
e 80 157 1.0
e 81 268 1.0
e 82 37 1.0
e 83 50 1.0
e 84 255 27.0
e 85 96 1.0
e 86 294 1.0
e 87 187 24.0
e 88 41 1.0
e 89 142 1.0
e 90 184 1.0
e 91 188 1.0
e 92 102 3.0
e 93 241 1.0
e 94 119 1.0
e 95 318 1.0
e 96 216 1.0
e 97 193 1.0
e 98 106 3.0
e 98 158 3.0
e 99 200 1.0
e 100 109 1.0
e 101 55 2.0
e 102 255 20.0
e 102 154 5.0
e 102 133 5.0
e 102 157 11.0
e 102 143 1.0
e 103 240 1.0
e 104 144 1.0
e 105 145 38.0
e 106 15 1.0
e 107 58 2.0
e 108 314 1.0
e 109 11 1.0
e 110 295 2.0
e 111 121 1.0
e 112 279 38.0
e 112 31 22.0
e 112 129 11.0
e 112 274 41.0
e 112 184 34.0
e 112 34 36.0
e 112 300 22.0
e 112 218 38.0
e 112 50 32.0
e 112 238 32.0
e 112 116 40.0
e 112 153 42.0
e 112 166 9.0
e 112 141 28.0
e 112 222 19.0
e 112 237 8.0
e 112 175 39.0
e 112 117 10.0
e 112 185 7.0
e 112 151 27.0
e 112 95 6.0
e 112 45 24.0
e 112 91 22.0
e 112 54 38.0
e 113 315 1.0
e 114 181 23.0
e 115 239 1.0
e 116 174 1.0
e 117 315 2.0
e 118 291 1.0
e 119 244 1.0
e 120 43 4.0
e 120 249 44.0
e 120 304 44.0
e 120 198 31.0
e 120 245 13.0
e 120 181 23.0
e 120 35 22.0
e 120 269 43.0
e 120 36 43.0
e 120 267 38.0
e 120 148 27.0
e 120 16 26.0
e 120 190 34.0
e 120 232 19.0
e 120 100 29.0
e 120 25 24.0
e 120 17 4.0
e 120 171 6.0
e 120 50 1.0
e 120 199 47.0
e 120 153 4.0
e 120 76 39.0
e 120 133 40.0
e 120 18 26.0
e 121 316 1.0
e 122 192 28.0
e 122 106 4.0
e 122 27 6.0
e 123 294 1.0
e 124 87 46.0
e 124 132 24.0
e 124 274 21.0
e 124 264 36.0
e 124 34 39.0
e 124 201 9.0
e 124 114 31.0
e 124 129 32.0
e 124 106 6.0
e 124 17 6.0
e 124 150 35.0
e 124 204 39.0
e 124 113 5.0
e 124 263 8.0
e 124 289 3.0
e 124 219 22.0
e 124 107 5.0
e 124 95 36.0
e 124 247 25.0
e 124 316 43.0
e 124 205 9.0
e 124 148 30.0
e 124 66 28.0
e 124 241 5.0
e 125 154 1.0
e 126 297 1.0
e 127 288 1.0
e 128 279 2.0
e 129 230 3.0
e 130 97 1.0
e 131 130 1.0
e 132 220 1.0
e 133 180 1.0
e 134 7 2.0
e 135 141 2.0
e 136 279 1.0
e 137 160 13.0
e 137 234 28.0
e 137 281 9.0
e 137 156 37.0
e 137 30 10.0
e 137 157 22.0
e 137 235 2.0
e 137 22 5.0
e 137 23 15.0
e 137 312 36.0
e 137 38 25.0
e 137 317 3.0
e 137 55 44.0
e 137 276 28.0
e 137 184 44.0
e 137 75 18.0
e 137 277 6.0
e 137 289 16.0
e 137 66 21.0
e 137 164 33.0
e 137 232 41.0
e 137 110 12.0
e 137 39 18.0
e 137 247 47.0
e 137 290 42.0
e 138 226 39.0
e 139 230 1.0
e 140 128 1.0
e 142 212 1.0
e 143 9 1.0
e 144 200 1.0
e 145 285 6.0
e 145 222 21.0
e 145 236 34.0
e 145 246 10.0
e 145 22 7.0
e 145 165 7.0
e 145 35 2.0
e 145 142 8.0
e 145 112 27.0
e 145 274 14.0
e 145 179 20.0
e 145 290 19.0
e 145 153 36.0
e 145 79 28.0
e 145 0 29.0
e 145 119 9.0
e 145 88 27.0
e 145 220 35.0
e 145 226 3.0
e 145 307 12.0
e 145 284 9.0
e 145 3 16.0
e 145 195 31.0
e 146 161 1.0
e 147 185 1.0
e 148 11 1.0
e 149 269 1.0
e 150 11 33.0
e 150 61 9.0
e 150 241 5.0
e 150 10 13.0
e 150 303 10.0
e 150 274 28.0
e 150 144 27.0
e 150 145 45.0
e 150 96 32.0
e 150 313 19.0
e 150 257 32.0
e 150 46 13.0
e 150 79 45.0
e 150 94 38.0
e 150 49 30.0
e 150 285 28.0
e 150 125 44.0
e 150 62 37.0
e 150 184 19.0
e 150 245 49.0
e 150 260 3.0
e 151 32 27.0
e 152 179 1.0
e 153 242 39.0
e 153 259 20.0
e 153 96 6.0
e 153 239 46.0
e 153 150 10.0
e 153 81 26.0
e 153 234 12.0
e 153 78 6.0
e 153 5 18.0
e 153 295 1.0
e 153 154 9.0
e 153 70 40.0
e 153 245 31.0
e 153 135 15.0
e 153 11 7.0
e 153 91 30.0
e 153 6 1.0
e 153 167 14.0
e 153 125 3.0
e 153 97 8.0
e 154 208 42.0
e 155 205 1.0
e 156 270 35.0
e 156 303 39.0
e 156 277 29.0
e 156 198 45.0
e 156 26 1.0
e 156 140 36.0
e 156 96 2.0
e 156 311 24.0
e 156 157 7.0
e 156 101 40.0
e 156 129 37.0
e 156 2 31.0
e 156 278 29.0
e 156 305 42.0
e 156 112 39.0
e 156 55 1.0
e 156 317 26.0
e 156 186 24.0
e 156 23 44.0
e 156 243 38.0
e 156 15 34.0
e 157 211 1.0
e 158 120 17.0
e 158 106 1.0
e 158 188 4.0
e 159 285 4.0
e 160 250 1.0
e 161 193 2.0
e 162 204 2.0
e 163 196 1.0
e 164 147 2.0
e 165 67 35.0
e 166 30 1.0
e 167 82 1.0
e 168 27 2.0
e 169 156 6.0
e 169 3 45.0
e 170 132 1.0
e 171 190 1.0
e 172 308 1.0
e 172 43 1.0
e 173 12 1.0
e 174 108 1.0
e 175 153 11.0
e 176 198 1.0
e 177 91 1.0
e 178 111 1.0
e 179 136 1.0
e 180 232 1.0
e 181 47 1.0
e 181 278 3.0
e 181 269 15.0
e 181 179 41.0
e 181 93 21.0
e 181 147 46.0
e 181 18 19.0
e 181 318 26.0
e 181 94 13.0
e 181 12 6.0
e 181 13 3.0
e 181 302 39.0
e 181 262 31.0
e 181 270 1.0
e 181 228 8.0
e 181 163 1.0
e 181 223 11.0
e 181 275 9.0
e 181 319 9.0
e 181 263 8.0
e 181 153 2.0
e 182 101 3.0
e 183 201 2.0
e 184 117 1.0
e 186 235 1.0
e 187 110 49.0
e 187 161 31.0
e 187 7 22.0
e 187 4 16.0
e 187 185 1.0
e 187 44 44.0
e 187 53 43.0
e 187 8 25.0
e 187 221 32.0
e 187 295 41.0
e 187 177 45.0
e 187 70 12.0
e 187 214 27.0
e 187 93 10.0
e 187 172 25.0
e 187 73 19.0
e 187 164 25.0
e 187 267 5.0
e 187 74 42.0
e 187 287 12.0
e 187 15 16.0
e 187 75 46.0
e 187 292 26.0
e 188 38 13.0
e 189 240 1.0
e 190 92 1.0
e 191 220 1.0
e 192 79 45.0
e 192 281 16.0
e 192 183 15.0
e 192 65 1.0
e 192 98 9.0
e 192 100 14.0
e 192 143 20.0
e 192 117 9.0
e 192 42 40.0
e 192 105 31.0
e 192 268 22.0
e 192 216 24.0
e 192 133 4.0
e 192 74 30.0
e 192 141 40.0
e 192 257 21.0
e 192 270 4.0
e 192 107 19.0
e 192 277 5.0
e 192 66 7.0
e 192 243 42.0
e 192 37 17.0
e 192 309 34.0
e 192 97 20.0
e 193 179 1.0
e 194 59 49.0
e 194 5 16.0
e 194 24 5.0
e 194 92 11.0
e 194 184 20.0
e 194 310 41.0
e 194 314 23.0
e 194 297 29.0
e 194 60 31.0
e 194 186 19.0
e 194 135 40.0
e 194 134 31.0
e 194 129 34.0
e 194 166 2.0
e 194 175 48.0
e 194 115 9.0
e 194 144 49.0
e 194 187 9.0
e 194 188 4.0
e 194 292 43.0
e 194 296 18.0
e 194 246 48.0
e 194 94 1.0
e 194 207 16.0
e 195 283 1.0
e 196 213 1.0
e 197 93 1.0
e 198 60 1.0
e 199 202 1.0
e 200 1 1.0
e 201 177 1.0
e 202 96 1.0
e 203 65 1.0
e 204 37 1.0
e 205 300 2.0
e 206 87 1.0
e 207 59 6.0
e 207 33 15.0
e 207 181 26.0
e 207 172 18.0
e 207 280 48.0
e 207 188 17.0
e 207 174 36.0
e 207 126 2.0
e 207 170 46.0
e 207 46 20.0
e 207 264 9.0
e 207 40 19.0
e 207 275 22.0
e 207 137 26.0
e 207 7 28.0
e 207 217 36.0
e 207 282 25.0
e 207 39 31.0
e 207 147 21.0
e 207 176 47.0
e 208 37 7.0
e 208 266 48.0
e 208 312 38.0
e 208 270 17.0
e 208 294 17.0
e 208 7 26.0
e 208 167 27.0
e 208 22 6.0
e 208 143 19.0
e 208 287 27.0
e 208 176 37.0
e 208 273 21.0
e 208 16 43.0
e 208 33 36.0
e 208 281 27.0
e 208 278 12.0
e 208 56 49.0
e 208 92 16.0
e 208 210 2.0
e 208 256 14.0
e 208 36 25.0
e 208 15 27.0
e 208 196 8.0
e 209 108 2.0
e 209 120 39.0
e 210 138 1.0
e 211 212 1.0
e 212 234 1.0
e 213 43 1.0
e 214 207 11.0
e 215 6 1.0
e 216 169 1.0
e 217 149 19.0
e 217 55 39.0
e 217 260 42.0
e 217 130 27.0
e 217 263 39.0
e 217 199 22.0
e 217 145 1.0
e 217 193 18.0
e 217 72 34.0
e 217 174 36.0
e 217 187 24.0
e 217 255 3.0
e 217 77 46.0
e 217 298 18.0
e 217 40 2.0
e 217 34 3.0
e 217 304 47.0
e 217 14 10.0
e 217 165 48.0
e 217 97 5.0
e 217 211 20.0
e 217 18 13.0
e 217 89 16.0
e 218 21 21.0
e 219 233 1.0
e 220 152 1.0
e 221 47 2.0
e 222 82 1.0
e 223 306 1.0
e 224 39 1.0
e 225 139 5.0
e 225 113 1.0
e 226 79 29.0
e 226 251 42.0
e 226 19 38.0
e 226 281 17.0
e 226 223 35.0
e 226 243 31.0
e 226 285 19.0
e 226 130 34.0
e 226 149 3.0
e 226 105 28.0
e 226 207 19.0
e 226 233 15.0
e 226 42 40.0
e 226 158 17.0
e 226 301 38.0
e 226 221 30.0
e 226 7 44.0
e 226 289 36.0
e 226 20 12.0
e 226 53 8.0
e 226 246 5.0
e 226 230 4.0
e 227 166 1.0
e 228 271 1.0
e 229 286 1.0
e 230 222 2.0
e 231 45 1.0
e 232 86 1.0
e 233 70 2.0
e 234 288 1.0
e 235 107 1.0
e 236 84 1.0
e 237 151 49.0
e 237 221 27.0
e 237 155 14.0
e 237 277 21.0
e 237 71 43.0
e 237 204 7.0
e 237 8 25.0
e 237 238 9.0
e 237 143 25.0
e 237 234 15.0
e 237 273 41.0
e 237 306 35.0
e 237 219 7.0
e 237 115 22.0
e 237 3 11.0
e 237 52 35.0
e 237 59 1.0
e 237 290 14.0
e 237 9 41.0
e 237 197 27.0
e 237 199 4.0
e 237 31 41.0
e 238 71 1.0
e 239 105 1.0
e 240 65 1.0
e 241 63 1.0
e 242 187 24.0
e 243 41 1.0
e 244 127 1.0
e 245 90 41.0
e 245 181 42.0
e 245 12 18.0
e 245 1 24.0
e 245 97 38.0
e 245 206 13.0
e 245 61 47.0
e 245 185 33.0
e 245 94 34.0
e 245 291 43.0
e 245 124 22.0
e 245 102 37.0
e 245 231 36.0
e 245 59 36.0
e 245 15 39.0
e 245 78 7.0
e 245 114 10.0
e 245 301 37.0
e 245 302 13.0
e 245 57 45.0
e 246 233 1.0
e 247 313 8.0
e 248 285 2.0
e 249 10 2.0
e 250 126 1.0
e 251 190 1.0
e 252 264 1.0
e 253 154 13.0
e 253 69 3.0
e 253 131 10.0
e 253 136 48.0
e 253 104 38.0
e 253 9 19.0
e 253 90 26.0
e 253 176 21.0
e 253 173 47.0
e 253 161 20.0
e 253 123 48.0
e 253 258 8.0
e 253 14 7.0
e 253 227 44.0
e 253 13 7.0
e 253 309 45.0
e 253 137 5.0
e 253 132 45.0
e 253 124 28.0
e 253 250 2.0
e 253 280 41.0
e 253 19 13.0
e 253 221 45.0
e 253 76 48.0
e 254 309 1.0
e 255 278 11.0
e 255 285 40.0
e 255 219 27.0
e 255 80 4.0
e 255 296 2.0
e 255 121 28.0
e 255 56 12.0
e 255 98 47.0
e 255 76 22.0
e 255 23 35.0
e 255 86 35.0
e 255 99 17.0
e 255 113 36.0
e 255 297 26.0
e 255 181 29.0
e 255 3 46.0
e 255 290 22.0
e 255 292 7.0
e 255 306 47.0
e 255 299 5.0
e 255 44 43.0
e 255 131 41.0
e 256 291 1.0
e 257 103 2.0
e 258 31 16.0
e 258 158 13.0
e 258 195 43.0
e 258 201 26.0
e 258 259 30.0
e 258 112 31.0
e 258 292 31.0
e 258 138 34.0
e 258 38 26.0
e 258 280 15.0
e 258 284 28.0
e 258 118 23.0
e 258 301 31.0
e 258 239 41.0
e 258 281 46.0
e 258 13 8.0
e 258 137 45.0
e 258 57 5.0
e 258 44 4.0
e 258 221 15.0
e 258 267 19.0
e 258 87 14.0
e 258 229 8.0
e 259 246 1.0
e 260 264 1.0
e 261 189 6.0
e 261 93 2.0
e 261 44 47.0
e 261 304 22.0
e 261 197 45.0
e 261 204 31.0
e 261 283 12.0
e 261 251 47.0
e 261 151 21.0
e 261 207 8.0
e 261 214 14.0
e 261 162 40.0
e 261 277 1.0
e 261 240 6.0
e 261 0 31.0
e 261 173 46.0
e 261 318 41.0
e 261 103 17.0
e 261 67 25.0
e 261 98 5.0
e 261 229 6.0
e 261 99 31.0
e 262 312 1.0
e 263 155 1.0
e 264 149 4.0
e 265 317 2.0
e 266 128 1.0
e 267 118 1.0
e 268 317 2.0
e 269 40 1.0
e 270 294 6.0
e 270 4 6.0
e 271 123 1.0
e 272 95 1.0
e 272 62 20.0
e 272 251 10.0
e 272 256 10.0
e 272 196 8.0
e 273 166 1.0
e 274 49 35.0
e 275 197 1.0
e 276 180 1.0
e 277 302 1.0
e 278 92 1.0
e 279 214 1.0
e 280 225 37.0
e 280 33 21.0
e 280 161 10.0
e 280 70 24.0
e 280 319 33.0
e 280 99 26.0
e 280 134 42.0
e 280 227 8.0
e 280 224 8.0
e 280 149 47.0
e 280 162 2.0
e 280 13 14.0
e 280 60 3.0
e 280 176 39.0
e 280 169 1.0
e 280 55 24.0
e 280 293 7.0
e 280 0 44.0
e 280 48 49.0
e 280 254 39.0
e 280 56 45.0
e 280 296 30.0
e 281 237 9.0
e 282 43 47.0
e 282 51 27.0
e 282 286 34.0
e 282 180 15.0
e 282 301 41.0
e 282 28 33.0
e 282 176 40.0
e 282 13 2.0
e 282 213 40.0
e 282 48 5.0
e 282 158 23.0
e 282 199 26.0
e 282 236 16.0
e 282 84 44.0
e 282 65 12.0
e 282 87 12.0
e 282 98 12.0
e 282 24 26.0
e 282 145 39.0
e 282 16 20.0
e 282 237 25.0
e 282 59 9.0
e 282 146 11.0
e 282 189 8.0
e 283 104 2.0
e 284 272 32.0
e 284 72 6.0
e 284 205 5.0
e 284 275 24.0
e 284 319 40.0
e 284 126 7.0
e 284 200 27.0
e 284 224 7.0
e 284 201 42.0
e 284 282 11.0
e 284 99 13.0
e 284 98 41.0
e 284 136 23.0
e 284 132 33.0
e 284 38 3.0
e 284 278 7.0
e 284 202 1.0
e 284 223 22.0
e 284 89 41.0
e 284 311 16.0
e 284 213 45.0
e 284 102 37.0
e 285 185 3.0
e 286 274 1.0
e 287 19 1.0
e 288 247 1.0
e 289 17 1.0
e 290 38 23.0
e 290 46 40.0
e 290 4 21.0
e 290 231 40.0
e 290 282 31.0
e 290 14 3.0
e 290 135 26.0
e 290 162 30.0
e 290 8 41.0
e 290 172 39.0
e 290 136 28.0
e 290 310 6.0
e 290 254 38.0
e 290 313 1.0
e 290 314 24.0
e 290 102 7.0
e 290 26 3.0
e 290 273 42.0
e 290 58 37.0
e 290 80 25.0
e 291 49 21.0
e 292 254 1.0
e 293 316 1.0
e 294 198 1.0
e 295 22 2.0
e 296 84 2.0
e 297 118 1.0
e 298 163 2.0
e 299 164 1.0
e 300 84 1.0
e 301 286 1.0
e 302 45 1.0
e 303 91 1.0
e 304 170 1.0
e 305 163 2.0
e 306 177 1.0
e 307 128 1.0
e 308 243 1.0
e 309 95 1.0
e 310 305 1.0
e 311 288 2.0
e 312 216 1.0
e 313 11 29.0
e 313 267 32.0
e 313 59 22.0
e 313 298 4.0
e 313 172 41.0
e 313 309 26.0
e 313 310 41.0
e 313 58 24.0
e 313 100 46.0
e 313 47 19.0
e 313 88 42.0
e 313 167 37.0
e 313 279 12.0
e 313 149 15.0
e 313 10 37.0
e 313 194 21.0
e 313 291 4.0
e 313 109 16.0
e 313 56 25.0
e 313 223 12.0
e 313 162 8.0
e 314 203 1.0
e 315 230 1.0
e 316 113 1.0
e 317 107 1.0
e 318 148 1.0
e 319 165 2.0
